w = 40;
n = 20;
measures = [|22, 40,
|3, 40,
|4, 22,
|5, 13,
|5, 12,
|4, 14,
|3, 16,
|5, 8,
|3, 12,
|3, 10,
|3, 9,
|3, 8,
|3, 7,
|5, 4,
|3, 6,
|4, 4,
|3, 5,
|5, 3,
|3, 4,
|3, 3,
|];
initial_x = [0, 22, 25, 29, 34, 0, 4, 7, 12, 15, 18, 21, 24, 27, 32, 35, 0, 3, 8, 11];
initial_y = [0, 0, 0, 0, 0, 40, 40, 40, 40, 40, 40, 40, 40, 40, 40, 40, 56, 56, 56, 56];